10
0  12  29  22  13  24  11  27  13  22
12  0  27  21  11  11  24  17  15  23
29  27  0  12  23  20  18  30  20  15
22  21  12  0  23  28  16  10  25  14
13  11  23  23  0  15  11  20  19  22
24  11  20  28  15  0  12  10  16  20
11  24  18  16  11  12  0  20  12  15
27  17  30  10  20  10  20  0  25  11
13  15  20  25  19  16  12  25  0  10
22  23  15  14  22  20  15  11  10  0